CMPL model generation - running

CMPL version: 1.11.0
Authors: Thomas Schleiff, Mike Steglich
Distributed under the GPLv3 

create model instance ...
write model instance ...
CMPL model generation - finished

Solver - running


Welcome to IBM(R) ILOG(R) CPLEX(R) Interactive Optimizer 12.7.1.0
  with Simplex, Mixed Integer & Barrier Optimizers
5725-A06 5725-A29 5724-Y48 5724-Y49 5724-Y54 5724-Y55 5655-Y21
Copyright IBM Corp. 1988, 2017.  All Rights Reserved.

Type 'help' for a list of available commands.
Type 'help' followed by a command name for more
information on commands.

CPLEX> Specified objective sense: MINIMIZE
Selected objective  name:  line[1]
Selected RHS        name:  RHS
Selected bound      name:  BOUND
Problem '/tmp/cmpl.T24491.mps' read.
Read time = 0.05 sec. (8.18 ticks)
CPLEX> CPXPARAM_Read_APIEncoding                        "UTF-8"
Tried aggregator 3 times.
MIP Presolve eliminated 19126 rows and 30488 columns.
MIP Presolve modified 340 coefficients.
Aggregator did 702 substitutions.
Reduced MIP has 2527 rows, 3403 columns, and 9919 nonzeros.
Reduced MIP has 3235 binaries, 0 generals, 0 SOSs, and 0 indicators.
Presolve time = 0.07 sec. (42.12 ticks)
Found incumbent of value 1532.253775 after 0.17 sec. (85.88 ticks)
Probing fixed 9 vars, tightened 0 bounds.
Probing time = 0.02 sec. (4.48 ticks)
Tried aggregator 1 time.
MIP Presolve eliminated 0 rows and 9 columns.
MIP Presolve modified 51 coefficients.
Reduced MIP has 2527 rows, 3394 columns, and 9901 nonzeros.
Reduced MIP has 3394 binaries, 0 generals, 0 SOSs, and 0 indicators.
Presolve time = 0.02 sec. (8.35 ticks)
Probing time = 0.01 sec. (2.71 ticks)
Clique table members: 6058.
MIP emphasis: balance optimality and feasibility.
MIP search method: dynamic search.
Parallel mode: none, using 1 thread.
Root relaxation solution time = 0.01 sec. (6.23 ticks)

        Nodes                                         Cuts/
   Node  Left     Objective  IInf  Best Integer    Best Bound    ItCnt     Gap

*     0+    0                         1532.2538      -14.1796           100.93%
      0     0      342.9777     2     1532.2538      342.9777      279   77.62%
*     0+    0                          344.9781      342.9777             0.58%
*     0+    0                          343.0348      342.9777             0.02%
*     0     0      integral     0      343.0070      343.0070      280    0.00%
Elapsed time = 0.27 sec. (126.17 ticks, tree = 0.01 MB, solutions = 4)

Root node processing (before b&c):
  Real time             =    0.27 sec. (127.89 ticks)
Sequential b&c:
  Real time             =    0.00 sec. (0.00 ticks)
                          ------------
Total (root+branch&cut) =    0.27 sec. (127.89 ticks)

Solution pool: 4 solutions saved.

MIP - Integer optimal solution:  Objective =  3.4300702100e+02
Solution time =    0.28 sec.  Iterations = 280  Nodes = 0
Deterministic time = 127.99 ticks  (465.30 ticks/sec)

CPLEX> Incumbent solution written to file '/tmp/cmpl.T24491.gsol'.
CPLEX> 
CMPL: Time used for model generation: 1 seconds
CMPL: Time used for solving the model: 1 seconds


Solution written to ASCII file: results/output_generated_conf_0.7/2017-03-06-4/fair-nonlinear.sol

Solver - finished
